NAME : fri26Preorder.487.tour
COMMENT : Length = 487
COMMENT : Found by LKH [Keld Helsgaun] Fri May  1 23:58:27 2020
TYPE : TOUR
DIMENSION : 26
TOUR_SECTION
1
2
3
4
6
5
7
8
9
10
14
15
13
12
11
16
19
20
18
17
21
22
26
23
24
25
-1
EOF
